GLPSOL--GLPK LP/MIP Solver 5.0
Parameter(s) specified in the command line:
 --lp ../modeles/15_294.lp --log 15_294.log
Reading problem data from '../modeles/15_294.lp'...
4471 rows, 8850 columns, 30915 non-zeros
4410 integer variables, all of which are binary
13342 lines were read
GLPK Integer Optimizer 5.0
4471 rows, 8850 columns, 30915 non-zeros
4410 integer variables, all of which are binary
Preprocessing...
4350 constraint coefficient(s) were reduced
4471 rows, 8835 columns, 30900 non-zeros
4410 integer variables, all of which are binary
Scaling...
 A: min|aij| =  1.851e-04  max|aij| =  4.000e+00  ratio =  2.161e+04
GM: min|aij| =  8.248e-02  max|aij| =  1.212e+01  ratio =  1.470e+02
EQ: min|aij| =  6.803e-03  max|aij| =  1.000e+00  ratio =  1.470e+02
2N: min|aij| =  5.923e-03  max|aij| =  1.754e+00  ratio =  2.961e+02
Constructing initial basis...
Size of triangular part is 4471
Solving LP relaxation...
GLPK Simplex Optimizer 5.0
4471 rows, 8835 columns, 30900 non-zeros
      0: obj =   3.000000000e+01 inf =   7.450e+01 (31)
Perturbing LP to avoid stalling [199]...
    284: obj =   1.955314373e-01 inf =   0.000e+00 (0)
Removing LP perturbation [1004]...
*  1004: obj =  -3.872862659e+00 inf =   4.401e-13 (0) 1
OPTIMAL LP SOLUTION FOUND
Integer optimization begins...
Long-step dual simplex will be used
+  1004: mip =     not found yet >=              -inf        (1; 0)
+  1007: >>>>>  -3.872862659e+00 >=  -3.872862659e+00 < 0.1% (4; 0)
+  1007: mip =  -3.872862659e+00 >=     tree is empty   0.0% (0; 7)
INTEGER OPTIMAL SOLUTION FOUND
Time used:   0.2 secs
Memory used: 12.9 Mb (13479765 bytes)
